This is Ipopt version 3.10.1, running with linear solver mumps.

Number of nonzeros in equality constraint Jacobian...:      236
Number of nonzeros in inequality constraint Jacobian.:        0
Number of nonzeros in Lagrangian Hessian.............:     5892

Total number of variables............................:      120
                     variables with only lower bounds:        0
                variables with lower and upper bounds:      120
                     variables with only upper bounds:        0
Total number of equality constraints.................:       59
Total number of inequality constraints...............:        0
        inequality constraints with only lower bounds:        0
   inequality constraints with lower and upper bounds:        0
        inequality constraints with only upper bounds:        0

iter    objective    inf_pr   inf_du lg(mu)  ||d||  lg(rg) alpha_du alpha_pr  ls
   0 -3.6579878e-03 1.00e-02 1.65e-03  -1.0 0.00e+00    -  0.00e+00 0.00e+00   0
   1 -3.9484140e-03 3.82e-10 3.63e-03  -1.7 2.69e-02    -  9.75e-01 1.00e+00f  1
   2 -3.9035216e-03 2.22e-16 1.62e-05  -2.5 2.79e-02    -  1.00e+00 1.00e+00f  1
   3 -5.3344799e-03 4.44e-16 1.27e-03  -3.8 4.94e-02    -  8.81e-01 1.00e+00f  1
   4 -1.9962074e-02 3.01e-12 1.41e-02  -5.7 1.06e+00  -2.0 1.82e-01 1.31e-01f  1
   5 -2.4287917e-02 4.81e-12 1.34e-02  -5.7 4.87e-02  -0.7 9.24e-01 4.17e-01f  1
   6 -2.8223097e-02 4.40e-12 1.29e-02  -5.7 2.07e-02  -0.2 1.00e+00 7.94e-01f  1
   7 -3.3238931e-02 3.68e-12 2.18e-02  -5.7 1.39e-01  -0.7 1.00e+00 1.65e-01f  1
   8 -1.1274940e-02 1.42e-12 4.03e-02  -5.7 3.72e-01  -1.2 8.99e-02 6.13e-01h  1
   9 -1.2865271e-02 3.99e-14 2.95e-02  -5.7 2.13e-01  -0.8 9.18e-01 9.97e-01F  1
iter    objective    inf_pr   inf_du lg(mu)  ||d||  lg(rg) alpha_du alpha_pr  ls
  10 -1.3289027e-02 3.85e-14 3.62e-02  -5.7 1.54e-01  -1.3 1.00e+00 3.40e-02f  1
  11 -1.6509699e-02 7.83e-12 5.52e-03  -5.7 3.87e-02  -0.8 1.00e+00 1.00e+00f  1
  12 -2.1145454e-02 6.94e-12 2.82e-02  -5.7 4.20e-01  -1.3 9.53e-01 1.14e-01f  1
  13 -2.2816213e-02 5.78e-12 8.21e-03  -5.7 8.37e-02  -0.9 1.00e+00 1.67e-01f  1
  14 -2.6298639e-02 2.22e-16 9.24e-03  -5.7 2.50e-02  -0.4 1.00e+00 1.00e+00f  1
  15 -2.7995898e-02 2.22e-16 1.61e-02  -5.7 1.57e-01  -0.9 1.00e+00 8.50e-02f  1
  16 -2.9289197e-02 5.22e-13 1.05e-02  -5.7 3.65e-02  -0.5 1.00e+00 2.57e-01f  1
  17 -3.2078637e-02 1.46e-12 2.32e-02  -5.7 2.10e-01  -1.0 1.00e+00 1.18e-01f  1
  18 -3.5261558e-02 7.49e-13 1.29e-02  -5.7 4.76e-02  -0.6 1.00e+00 4.86e-01f  1
  19 -3.8701606e-02 7.02e-13 4.71e-02  -5.7 4.23e-01  -1.0 1.00e+00 6.29e-02f  1
iter    objective    inf_pr   inf_du lg(mu)  ||d||  lg(rg) alpha_du alpha_pr  ls
  20 -4.2583976e-02 1.92e-12 1.33e-02  -5.7 5.95e-02  -0.6 1.00e+00 4.36e-01f  1
  21 -4.6961613e-02 3.41e-12 7.29e-02  -5.7 4.51e-01  -1.1 9.13e-01 5.50e-02f  1
  22 -5.2487550e-02 4.31e-12 1.61e-02  -5.7 8.76e-02  -0.7 1.00e+00 3.73e-01f  1
  23 -5.4837421e-02 2.51e-12 1.72e-02  -5.7 3.18e-02  -0.2 1.00e+00 4.17e-01f  1
  24 -7.0254880e-02 6.26e-12 2.12e-02  -5.7 1.23e-01  -0.7 1.00e+00 6.38e-01f  1
  25 -7.3207402e-02 4.54e-12 2.20e-02  -5.7 4.18e-02  -0.3 1.00e+00 2.75e-01f  1
  26 -7.7307991e-02 6.28e-12 5.42e-02  -5.7 1.94e-01  -0.8 1.00e+00 7.40e-02f  1
  27 -7.8748323e-02 6.53e-12 2.60e-02  -5.7 5.29e-02  -0.3 1.00e+00 1.06e-01f  1
  28 -8.7996795e-02 5.74e-12 4.65e-02  -5.7 2.64e-01  -0.8 7.37e-01 1.22e-01f  1
  29 -9.2061919e-02 4.54e-12 2.65e-02  -5.7 6.89e-02  -0.4 1.00e+00 2.09e-01f  1
iter    objective    inf_pr   inf_du lg(mu)  ||d||  lg(rg) alpha_du alpha_pr  ls
  30 -1.0016400e-01 4.35e-12 9.66e-02  -5.7 8.49e-01  -0.9 4.73e-01 4.31e-02f  1
  31 -1.1251119e-01 8.16e-12 2.49e-02  -5.7 7.21e-02  -0.4 1.00e+00 4.42e-01f  1
  32 -1.1775211e-01 8.14e-12 3.31e-02  -5.7 3.12e+01  -0.9 6.51e-03 1.62e-03f  1
  33 -1.2549875e-01 1.03e-11 4.31e-02  -5.7 1.35e-01  -0.5 1.00e+00 1.58e-01f  1
  34 -1.2890205e-01 8.00e-12 2.82e-02  -5.7 3.91e-02  -0.1 1.00e+00 2.26e-01f  1
  35 -1.3234804e-01 9.23e-12 6.20e-02  -5.7 2.05e-01  -0.5 1.00e+00 5.58e-02f  1
  36 -1.4988854e-01 1.03e-11 4.10e-02  -5.7 5.04e-02  -0.1 1.00e+00 9.91e-01f  1
  37 -1.5061631e-01 1.05e-11 1.54e-01  -5.7 3.41e-01  -0.6 1.00e+00 6.03e-03f  1
  38 -1.5882606e-01 2.02e-11 4.77e-02  -5.7 5.40e-02  -0.2 1.00e+00 5.70e-01f  1
  39 -1.6428150e-01 1.76e-11 7.70e-02  -5.7 1.47e-01  -0.6 9.02e-01 1.31e-01f  1
iter    objective    inf_pr   inf_du lg(mu)  ||d||  lg(rg) alpha_du alpha_pr  ls
  40 -1.6538668e-01 1.70e-11 4.99e-02  -5.7 3.97e-02  -0.2 1.00e+00 9.57e-02f  1
  41 -1.7994472e-01 1.90e-11 3.39e-02  -5.7 1.48e-01  -0.7 5.86e-01 3.30e-01f  1
  42 -1.8008624e-01 1.88e-11 4.36e-02  -5.7 5.41e-02  -0.3 1.00e+00 1.01e-02f  1
  43 -1.8699692e-01 1.77e-11 9.96e-02  -5.7 3.98e-01  -0.7 5.09e-01 6.19e-02f  1
  44 -1.9649380e-01 1.34e-11 2.66e-02  -5.7 5.79e-02  -0.3 1.00e+00 4.27e-01f  1
  45 -2.1169473e-01 1.33e-11 5.24e-02  -5.7 1.39e+01  -0.8 7.99e-03 3.24e-03f  1
  46 -2.1918767e-01 1.14e-11 8.60e-02  -5.7 1.13e-01  -0.4 1.00e+00 1.49e-01f  1
  47 -1.9062551e-01 1.00e-11 9.08e-02  -5.7 8.96e-01  -0.8 2.47e-02 1.19e-01h  1
  48 -1.9144280e-01 9.53e-12 4.53e-02  -5.7 6.23e-02  -0.4 1.00e+00 4.72e-02f  1
  49 -2.2013615e-01 8.85e-12 4.15e-02  -5.7 1.57e+00  -0.9 8.27e-02 7.07e-02f  1
iter    objective    inf_pr   inf_du lg(mu)  ||d||  lg(rg) alpha_du alpha_pr  ls
  50 -2.3624246e-01 1.10e-11 8.23e-02  -5.7 1.80e-01  -0.5 1.00e+00 1.99e-01f  1
  51 -2.2548800e-01 1.06e-11 1.00e-01  -5.7 1.76e+00  -0.9 8.03e-04 3.73e-02h  1
  52 -2.2577759e-01 1.06e-11 9.99e-02  -5.7 1.77e-01  -0.5 2.97e-03 4.35e-03f  1
  53 -2.2576676e-01 1.06e-11 9.98e-02  -5.7 1.08e+00  -1.0 3.42e-04 9.91e-05f  2
  54 -2.2596734e-01 1.09e-11 9.94e-02  -5.7 2.13e-01  -0.6 2.47e-03 3.03e-03f  1
  55 -2.2634402e-01 1.08e-11 8.85e-02  -5.7 2.23e+00  -1.0 6.27e-02 2.49e-03f  1
  56 -2.3425039e-01 1.08e-11 8.16e-02  -5.7 2.62e-01  -0.6 4.56e-02 9.55e-02F  1
  57 -2.3735266e-01 2.54e-11 9.12e-02  -5.7 6.12e-02  -0.2 6.99e-02 2.69e-01f  1
  58 -2.4023408e-01 2.39e-11 6.96e-02  -5.7 2.39e-01  -0.7 1.89e-01 5.71e-02f  1
  59 -2.5589083e-01 2.42e-11 1.24e-01  -5.7 7.32e-02  -0.2 1.28e-01 1.00e+00f  1
iter    objective    inf_pr   inf_du lg(mu)  ||d||  lg(rg) alpha_du alpha_pr  ls
  60 -2.5788738e-01 2.45e-11 9.76e-02  -5.7 3.14e-01  -0.7 1.12e-01 2.79e-02f  1
  61 -2.6071094e-01 1.86e-11 6.66e-02  -5.7 5.83e-02  -0.3 3.19e-01 2.39e-01f  1
  62 -2.6640208e-01 1.83e-11 6.98e-02  -5.7 1.58e-01  -0.8 1.93e-02 1.11e-01f  1
  63 -2.6691747e-01 1.77e-11 6.86e-02  -5.7 4.47e-01  -1.3 2.60e-02 3.15e-02f  1
  64 -2.6854974e-01 1.73e-11 6.81e-02  -5.7 1.47e-01  -0.8 1.15e-02 3.58e-02f  1
  65 -2.7210475e-01 1.57e-11 4.69e-02  -5.7 4.13e-01  -1.3 1.73e-01 9.05e-02f  1
  66 -2.7369042e-01 1.55e-11 4.90e-02  -5.7 1.17e-01  -0.9 9.71e-04 4.66e-02f  1
  67 -2.7406856e-01 1.54e-11 4.94e-02  -5.7 8.31e-01  -1.4 1.87e-03 5.98e-03f  1
  68 -2.7411548e-01 1.54e-11 4.93e-02  -5.7 3.92e-01  -0.9 6.93e-05 1.28e-03f  1
  69 -2.7408659e-01 1.54e-11 4.94e-02  -5.7 3.70e+00  -1.4 1.35e-04 2.94e-04f  6
iter    objective    inf_pr   inf_du lg(mu)  ||d||  lg(rg) alpha_du alpha_pr  ls
  70 -2.7429975e-01 1.52e-11 4.83e-02  -5.7 1.23e-01  -1.0 1.52e-02 8.42e-03f  1
  71 -2.9157800e-01 1.15e-11 8.35e-02  -5.7 4.33e-01  -1.5 9.88e-03 2.48e-01f  1
  72 -2.9252132e-01 1.16e-11 6.57e-02  -5.7 1.49e-01  -1.0 8.99e-01 3.31e-02f  1
  73 -3.0237134e-01 4.58e-13 2.80e-02  -5.7 5.78e-02  -0.6 5.39e-01 9.61e-01f  1
  74 -3.4003345e-01 2.03e-11 5.01e-02  -5.7 2.18e-01  -1.1 4.43e-01 8.03e-01f  1
  75 -3.4035278e-01 2.01e-11 9.73e-02  -5.7 1.23e-01  -0.7 9.78e-01 7.97e-03f  1
  76 -3.4035345e-01 2.01e-11 1.01e-01  -5.7 2.50e+00  -1.1 2.71e-02 1.11e-05f  2
  77 -3.4109417e-01 2.52e-11 9.92e-02  -5.7 1.12e-01  -0.7 3.43e-03 2.59e-02f  1
  78 -3.4491254e-01 2.52e-11 9.75e-02  -5.7 2.10e+01  -1.2 6.92e-04 1.36e-03f  1
  79 -3.4493733e-01 2.51e-11 9.74e-02  -5.7 1.29e-01  -0.8 5.91e-04 1.51e-03f  1
iter    objective    inf_pr   inf_du lg(mu)  ||d||  lg(rg) alpha_du alpha_pr  ls
  80 -3.4615066e-01 2.15e-11 4.58e-02  -5.7 3.84e-02  -0.3 1.00e+00 1.16e-01f  1
  81 -3.6699489e-01 1.94e-11 3.39e-02  -5.7 1.50e-01  -0.8 2.97e-01 5.50e-01f  1
  82 -3.6736348e-01 1.42e-11 8.21e-02  -5.7 5.83e-02  -0.4 8.61e-02 2.30e-02f  1
  83 -3.9414645e-01 1.15e-11 1.07e-01  -5.7 3.85e-01  -0.9 1.44e-02 1.95e-01f  1
  84 -4.0434968e-01 1.68e-11 3.42e-02  -5.7 1.18e-01  -0.4 5.37e-01 1.93e-01f  1
  85 -4.0848321e-01 1.29e-11 3.36e-02  -5.7 3.68e-02  -0.0 3.07e-01 2.31e-01f  1
  86 -4.6090466e-01 1.78e-11 1.03e-01  -5.7 2.12e-01  -0.5 1.00e+00 4.03e-01f  1
  87 -4.6090419e-01 1.78e-11 1.02e-01  -5.7 7.41e-01  -1.0 3.04e-04 1.86e-06f 18
  88 -4.6089895e-01 1.78e-11 1.02e-01  -5.7 2.78e+00  -0.5 1.41e-05 2.79e-06f 11
  89 -5.0151900e-01 7.25e-12 6.34e-02  -5.7 1.01e-01  -0.1 5.90e-01 5.94e-01f  1
iter    objective    inf_pr   inf_du lg(mu)  ||d||  lg(rg) alpha_du alpha_pr  ls
  90 -5.0819371e-01 5.71e-12 1.10e-01  -5.7 3.87e-02   0.3 1.00e+00 2.12e-01f  1
  91 -5.3426824e-01 4.67e-11 1.40e-01  -5.7 1.19e-01  -0.2 1.67e-01 3.63e-01f  1
  92 -5.3733124e-01 4.67e-11 5.39e-01  -5.7 6.17e+00  -0.6 7.70e-02 8.64e-04f  1
  93 -6.1763615e-01 3.46e-11 1.08e-01  -5.7 1.71e-01  -0.2 1.00e+00 6.27e-01f  1
  94 -6.4484718e-01 3.43e-11 1.15e-01  -5.7 7.50e-02   0.2 1.00e+00 3.85e-01f  1
  95 -6.8665602e-01 2.87e-11 1.90e-01  -5.7 3.81e-01  -0.3 2.89e-01 1.63e-01f  1
  96 -7.1841564e-01 7.03e-11 4.66e-01  -5.7 1.10e-01   0.2 1.00e+00 3.63e-01f  1
  97 -8.6666421e-01 6.26e-11 1.48e+00  -5.7 1.28e+00  -0.3 5.94e-01 1.10e-01f  1
  98 -8.6666275e-01 6.26e-11 1.38e+00  -5.7 8.42e-01  -0.8 3.53e-02 2.94e-06f 17
  99 -8.8404022e-01 3.99e-11 3.37e-01  -5.7 7.07e-02   0.5 9.61e-01 1.90e-01f  1
iter    objective    inf_pr   inf_du lg(mu)  ||d||  lg(rg) alpha_du alpha_pr  ls
 100 -9.4414254e-01 2.87e-11 7.90e-01  -5.7 2.53e-01   0.1 1.00e+00 2.79e-01f  1
 101 -5.4237654e-01 1.78e-15 1.41e+00  -5.7 5.47e-01    -  9.81e-02 1.00e+00h  1
 102 -5.6556334e-01 2.00e-15 1.74e+00  -5.7 9.05e-01    -  1.00e+00 3.30e-02f  1
 103 -6.0558221e-01 3.38e-11 1.31e+00  -5.7 5.86e-01    -  9.45e-01 8.49e-02f  4
 104 -7.9787977e-01 2.01e-11 8.82e-01  -5.7 6.82e-01    -  8.85e-01 4.06e-01f  1
 105 -7.9787928e-01 2.01e-11 5.39e-01  -5.7 1.33e+00    -  1.73e-01 5.39e-07f 21
 106 -7.9787903e-01 2.01e-11 3.33e-01  -5.7 1.33e+00    -  2.30e-01 2.70e-07f 22
 107 -8.1466077e-01 3.25e-11 5.67e-01  -5.7 2.71e-01  -0.4 1.00e+00 8.85e-02f  3
 108 -9.9910224e-01 1.36e-10 1.20e+00  -5.7 1.95e+00  -0.9 4.24e-01 1.15e-01f  1
 109 -9.9908488e-01 1.36e-10 6.48e-01  -5.7 3.60e-02    -  1.00e+00 4.88e-04f 12
iter    objective    inf_pr   inf_du lg(mu)  ||d||  lg(rg) alpha_du alpha_pr  ls
 110 -9.9978436e-01 8.92e-12 2.71e-02  -5.7 7.46e-04    -  1.00e+00 9.34e-01f  1
 111 -9.9978401e-01 5.71e-11 6.11e-01  -5.7 9.68e-05    -  2.02e-01 6.60e-02f  2
 112 -9.9977907e-01 7.86e-11 3.40e-11  -5.7 3.49e-06    -  1.00e+00 1.00e+00h  1
 113 -1.0000001e+00 5.40e-14 2.33e-07  -8.6 2.51e-05    -  1.00e+00 9.99e-01f  1
 114 -1.0000001e+00 4.81e-11 1.81e-01  -8.6 1.25e-08    -  8.26e-01 1.00e+00f  1
 115 -1.0000001e+00 1.33e-15 3.30e-15  -8.6 6.33e-09    -  1.00e+00 1.00e+00h  1

Number of Iterations....: 115

                                   (scaled)                 (unscaled)
Objective...............:  -1.0000001072049605e+00   -1.0000001072049605e+00
Dual infeasibility......:   3.3016794163370346e-15    3.3016794163370346e-15
Constraint violation....:   1.3322676295501878e-15    1.3322676295501878e-15
Complementarity.........:   4.5588728392174655e-09    4.5588728392174655e-09
Overall NLP error.......:   4.5588728392174655e-09    4.5588728392174655e-09


Number of objective function evaluations             = 237
Number of objective gradient evaluations             = 116
Number of equality constraint evaluations            = 237
Number of inequality constraint evaluations          = 0
Number of equality constraint Jacobian evaluations   = 1
Number of inequality constraint Jacobian evaluations = 0
Number of Lagrangian Hessian evaluations             = 115
Total CPU secs in IPOPT (w/o function evaluations)   =      0.520
Total CPU secs in NLP function evaluations           =      8.320

EXIT: Optimal Solution Found.
